Route #1: 0 46 3 11 4 21 28 44 36 34 0
Route #2: 0 58 24 2 1 49 30 53 31 0
Route #3: 0 41 14 6 40 25 20 16 0
Route #4: 0 47 23 35 55 15 7 52 0
Route #5: 0 26 17 37 29 13 0
Route #6: 0 18 33 38 59 8 57 27 19 0
Route #7: 0 50 39 43 56 12 9 32 0
Route #8: 0 51 42 45 0
Route #9: 0 22 10 54 5 48 0
Cost 1558:
